<?xml version="1.0" encoding="UTF-8"?><osil xmlns="os.optimizationservices.org"   xmlns:xsi="http://www.w3.org/2001/XMLSchema-instance" xsi:schemaLocation="os.optimizationservices.org http://www.optimizationservices.org/schemas/2.0/OSiL.xsd" ><instanceHeader><name>q_20_4_25_1</name></instanceHeader><instanceData><variables numberOfVariables="20"><var name="x1" ub="1"/><var name="x2" ub="1"/><var name="x3" ub="1"/><var name="x4" ub="1"/><var name="x5" ub="1"/><var name="x6" ub="1"/><var name="x7" ub="1"/><var name="x8" ub="1"/><var name="x9" ub="1"/><var name="x10" ub="1"/><var name="x11" ub="1"/><var name="x12" ub="1"/><var name="x13" ub="1"/><var name="x14" ub="1"/><var name="x15" ub="1"/><var name="x16" ub="1"/><var name="x17" ub="1"/><var name="x18" ub="1"/><var name="x19" ub="1"/><var name="x20" ub="1"/></variables><objectives numberOfObjectives="1"><obj maxOrMin="min" name="defObj_x21" numberOfObjCoef="20"><coef idx="0">.7333</coef><coef idx="1">.2647</coef><coef idx="2">-.5144</coef><coef idx="3">-.6792</coef><coef idx="4">-.9575</coef><coef idx="5">-.6195</coef><coef idx="6">-.3753</coef><coef idx="7">.6193</coef><coef idx="8">.1474</coef><coef idx="9">.6525</coef><coef idx="10">-.4271</coef><coef idx="11">-.679</coef><coef idx="12">-.3382</coef><coef idx="13">-.4683</coef><coef idx="14">8.96e-2</coef><coef idx="15">.107</coef><coef idx="16">-.9568</coef><coef idx="17">-.7025</coef><coef idx="18">-.7902</coef><coef idx="19">.2284</coef></obj></objectives><constraints numberOfConstraints="4"><con name="e2" ub="49.695"/><con name="e3" ub="18.723"/><con name="e4" ub="56.565"/><con name="e5" ub="28.634"/></constraints><linearConstraintCoefficients numberOfValues="80"><start><el mult="5" incr="20">0</el></start><colIdx><el mult="20" incr="1">0</el><el mult="20" incr="1">0</el><el mult="20" incr="1">0</el><el mult="20" incr="1">0</el></colIdx><value><el>.5307</el><el>.753</el><el>-.8016</el><el>-.331</el><el>.2902</el><el>-.7368</el><el>.6151</el><el>8.37e-2</el><el>-.4685</el><el>-8.23e-2</el><el>2.19e-2</el><el>9.7e-3</el><el>.9235</el><el>.1005</el><el>-.6207</el><el>-.5978</el><el>-.5025</el><el>.9402</el><el>.5528</el><el>-.4546</el><el>-.9605</el><el>.9985</el><el>.9604</el><el>.2233</el><el>.1751</el><el>.9245</el><el>.7868</el><el>-.5956</el><el>-.9745</el><el>-.49</el><el>.7809</el><el>-.4609</el><el>.778</el><el>3.83e-2</el><el>-.2656</el><el>.9676</el><el>.7539</el><el>.3629</el><el>-.2751</el><el>-.6036</el><el>-6.21e-2</el><el>-.674</el><el>9.77e-2</el><el>-.3899</el><el>-.6912</el><el>.15</el><el>-.7118</el><el>-.6134</el><el>.3822</el><el>.9004</el><el>-.7372</el><el>.42</el><el>-.2405</el><el>-.204</el><el>-.998</el><el>-.1736</el><el>.6076</el><el>.7557</el><el>-.7184</el><el>-.9139</el><el>.8643</el><el>.533</el><el>.1871</el><el>-.1905</el><el>.9994</el><el>-.7306</el><el>-.2797</el><el>-.7742</el><el>.2634</el><el>-.6882</el><el>-.1916</el><el>-.6292</el><el>.3706</el><el>.2252</el><el>-.5111</el><el>-.7106</el><el>.436</el><el>.6397</el><el>-.7626</el><el>-.7465</el></value></linearConstraintCoefficients><quadraticCoefficients  numberOfQuadraticTerms="260" ><qTerm  idx="-1"  idxOne="0"  idxTwo="1"  coef="-.6117"/><qTerm  idx="-1"  idxOne="0"  idxTwo="2"  coef="-1.8129"/><qTerm  idx="-1"  idxOne="0"  idxTwo="11"  coef="-.3188"/><qTerm  idx="-1"  idxOne="0"  idxTwo="13"  coef=".6034"/><qTerm  idx="-1"  idxOne="1"  idxTwo="5"  coef="-1.595"/><qTerm  idx="-1"  idxOne="1"  idxTwo="11"  coef="-7.85e-2"/><qTerm  idx="-1"  idxOne="2"  idxTwo="4"  coef="-1.5977"/><qTerm  idx="-1"  idxOne="2"  idxTwo="6"  coef="1.0218"/><qTerm  idx="-1"  idxOne="2"  idxTwo="14"  coef="1.007"/><qTerm  idx="-1"  idxOne="2"  idxTwo="18"  coef="-.7261"/><qTerm  idx="-1"  idxOne="3"  idxTwo="7"  coef="-1.2991"/><qTerm  idx="-1"  idxOne="3"  idxTwo="11"  coef=".3496"/><qTerm  idx="-1"  idxOne="3"  idxTwo="13"  coef=".4493"/><qTerm  idx="-1"  idxOne="4"  idxTwo="7"  coef="-1.4674"/><qTerm  idx="-1"  idxOne="4"  idxTwo="8"  coef="1.8742"/><qTerm  idx="-1"  idxOne="4"  idxTwo="13"  coef="1.4198"/><qTerm  idx="-1"  idxOne="5"  idxTwo="13"  coef="1.7508"/><qTerm  idx="-1"  idxOne="6"  idxTwo="9"  coef="-.9245"/><qTerm  idx="-1"  idxOne="6"  idxTwo="12"  coef="1.4228"/><qTerm  idx="-1"  idxOne="6"  idxTwo="14"  coef=".6879"/><qTerm  idx="-1"  idxOne="6"  idxTwo="15"  coef="-1.5367"/><qTerm  idx="-1"  idxOne="6"  idxTwo="17"  coef="-.6437"/><qTerm  idx="-1"  idxOne="7"  idxTwo="10"  coef="-1.9394"/><qTerm  idx="-1"  idxOne="7"  idxTwo="13"  coef=".4742"/><qTerm  idx="-1"  idxOne="7"  idxTwo="14"  coef="-7.75e-2"/><qTerm  idx="-1"  idxOne="7"  idxTwo="17"  coef="-.2181"/><qTerm  idx="-1"  idxOne="8"  idxTwo="11"  coef="1.9917"/><qTerm  idx="-1"  idxOne="8"  idxTwo="14"  coef="1.7145"/><qTerm  idx="-1"  idxOne="8"  idxTwo="19"  coef=".7704"/><qTerm  idx="-1"  idxOne="9"  idxTwo="9"  coef="1.0388"/><qTerm  idx="-1"  idxOne="9"  idxTwo="14"  coef="-.5008"/><qTerm  idx="-1"  idxOne="9"  idxTwo="15"  coef="1.6354"/><qTerm  idx="-1"  idxOne="10"  idxTwo="13"  coef=".216"/><qTerm  idx="-1"  idxOne="10"  idxTwo="16"  coef=".6619"/><qTerm  idx="-1"  idxOne="10"  idxTwo="17"  coef="-.7848"/><qTerm  idx="-1"  idxOne="10"  idxTwo="18"  coef="-.1379"/><qTerm  idx="-1"  idxOne="10"  idxTwo="19"  coef="-1.4819"/><qTerm  idx="-1"  idxOne="11"  idxTwo="13"  coef="-.1725"/><qTerm  idx="-1"  idxOne="11"  idxTwo="19"  coef="1.8637"/><qTerm  idx="-1"  idxOne="12"  idxTwo="14"  coef="1.5893"/><qTerm  idx="-1"  idxOne="12"  idxTwo="15"  coef="1.0944"/><qTerm  idx="-1"  idxOne="12"  idxTwo="16"  coef="1.7884"/><qTerm  idx="-1"  idxOne="12"  idxTwo="18"  coef="1.961"/><qTerm  idx="-1"  idxOne="13"  idxTwo="13"  coef="1.47e-2"/><qTerm  idx="-1"  idxOne="13"  idxTwo="16"  coef=".3278"/><qTerm  idx="-1"  idxOne="13"  idxTwo="18"  coef="1.2552"/><qTerm  idx="-1"  idxOne="14"  idxTwo="19"  coef="1.815"/><qTerm  idx="-1"  idxOne="15"  idxTwo="16"  coef=".8361"/><qTerm  idx="-1"  idxOne="16"  idxTwo="16"  coef=".9861"/><qTerm  idx="-1"  idxOne="17"  idxTwo="18"  coef="-1.5423"/><qTerm  idx="-1"  idxOne="17"  idxTwo="19"  coef=".6317"/><qTerm  idx="-1"  idxOne="19"  idxTwo="19"  coef="-.9728"/><qTerm  idx="0"  idxOne="0"  idxTwo="6"  coef="1.667"/><qTerm  idx="0"  idxOne="1"  idxTwo="2"  coef="1.1174"/><qTerm  idx="0"  idxOne="1"  idxTwo="8"  coef="-1.4507"/><qTerm  idx="0"  idxOne="1"  idxTwo="9"  coef="-1.762"/><qTerm  idx="0"  idxOne="1"  idxTwo="14"  coef=".8026"/><qTerm  idx="0"  idxOne="1"  idxTwo="16"  coef="1.4557"/><qTerm  idx="0"  idxOne="2"  idxTwo="6"  coef=".4529"/><qTerm  idx="0"  idxOne="2"  idxTwo="19"  coef="-.9965"/><qTerm  idx="0"  idxOne="3"  idxTwo="5"  coef="-.237"/><qTerm  idx="0"  idxOne="3"  idxTwo="6"  coef="1.3703"/><qTerm  idx="0"  idxOne="3"  idxTwo="13"  coef="-.7735"/><qTerm  idx="0"  idxOne="3"  idxTwo="16"  coef=".8382"/><qTerm  idx="0"  idxOne="3"  idxTwo="18"  coef="-1.4581"/><qTerm  idx="0"  idxOne="4"  idxTwo="4"  coef="1.8905"/><qTerm  idx="0"  idxOne="4"  idxTwo="11"  coef="1.963"/><qTerm  idx="0"  idxOne="4"  idxTwo="12"  coef="-6.47e-2"/><qTerm  idx="0"  idxOne="4"  idxTwo="16"  coef="-.9675"/><qTerm  idx="0"  idxOne="4"  idxTwo="18"  coef="1.3911"/><qTerm  idx="0"  idxOne="5"  idxTwo="6"  coef="-.9725"/><qTerm  idx="0"  idxOne="5"  idxTwo="9"  coef="-1.0578"/><qTerm  idx="0"  idxOne="5"  idxTwo="17"  coef="-1.4171"/><qTerm  idx="0"  idxOne="6"  idxTwo="6"  coef="-1.7049"/><qTerm  idx="0"  idxOne="6"  idxTwo="7"  coef=".8599"/><qTerm  idx="0"  idxOne="6"  idxTwo="13"  coef="9.11e-2"/><qTerm  idx="0"  idxOne="6"  idxTwo="18"  coef=".319"/><qTerm  idx="0"  idxOne="7"  idxTwo="11"  coef="-1.5141"/><qTerm  idx="0"  idxOne="7"  idxTwo="14"  coef="1.3157"/><qTerm  idx="0"  idxOne="7"  idxTwo="15"  coef="-1.5602"/><qTerm  idx="0"  idxOne="7"  idxTwo="17"  coef=".1747"/><qTerm  idx="0"  idxOne="7"  idxTwo="19"  coef=".8828"/><qTerm  idx="0"  idxOne="8"  idxTwo="9"  coef="-.7625"/><qTerm  idx="0"  idxOne="8"  idxTwo="10"  coef=".3506"/><qTerm  idx="0"  idxOne="8"  idxTwo="13"  coef="-1.4378"/><qTerm  idx="0"  idxOne="8"  idxTwo="17"  coef="1.7714"/><qTerm  idx="0"  idxOne="9"  idxTwo="12"  coef=".7344"/><qTerm  idx="0"  idxOne="9"  idxTwo="13"  coef="1.2432"/><qTerm  idx="0"  idxOne="10"  idxTwo="14"  coef=".5907"/><qTerm  idx="0"  idxOne="10"  idxTwo="16"  coef=".4863"/><qTerm  idx="0"  idxOne="11"  idxTwo="13"  coef="-.2337"/><qTerm  idx="0"  idxOne="11"  idxTwo="14"  coef="-1.4289"/><qTerm  idx="0"  idxOne="11"  idxTwo="15"  coef="1.1012"/><qTerm  idx="0"  idxOne="12"  idxTwo="12"  coef="-.4074"/><qTerm  idx="0"  idxOne="12"  idxTwo="13"  coef="-1.0302"/><qTerm  idx="0"  idxOne="12"  idxTwo="16"  coef="-.9647"/><qTerm  idx="0"  idxOne="12"  idxTwo="18"  coef="1.9687"/><qTerm  idx="0"  idxOne="12"  idxTwo="19"  coef=".2368"/><qTerm  idx="0"  idxOne="13"  idxTwo="14"  coef="1.7309"/><qTerm  idx="0"  idxOne="13"  idxTwo="17"  coef="1.0147"/><qTerm  idx="0"  idxOne="14"  idxTwo="14"  coef="-.4171"/><qTerm  idx="0"  idxOne="14"  idxTwo="19"  coef="1.0324"/><qTerm  idx="0"  idxOne="16"  idxTwo="17"  coef="1.8287"/><qTerm  idx="0"  idxOne="18"  idxTwo="18"  coef=".5333"/><qTerm  idx="1"  idxOne="0"  idxTwo="7"  coef="-.392"/><qTerm  idx="1"  idxOne="0"  idxTwo="9"  coef="1.8543"/><qTerm  idx="1"  idxOne="0"  idxTwo="11"  coef="-.8289"/><qTerm  idx="1"  idxOne="1"  idxTwo="6"  coef="1.6524"/><qTerm  idx="1"  idxOne="1"  idxTwo="8"  coef="-.3037"/><qTerm  idx="1"  idxOne="1"  idxTwo="10"  coef="1.0706"/><qTerm  idx="1"  idxOne="1"  idxTwo="18"  coef="1.5883"/><qTerm  idx="1"  idxOne="2"  idxTwo="10"  coef="1.3266"/><qTerm  idx="1"  idxOne="2"  idxTwo="14"  coef="1.298"/><qTerm  idx="1"  idxOne="3"  idxTwo="7"  coef="-1.3859"/><qTerm  idx="1"  idxOne="3"  idxTwo="12"  coef="1.0739"/><qTerm  idx="1"  idxOne="4"  idxTwo="4"  coef="1.6232"/><qTerm  idx="1"  idxOne="4"  idxTwo="6"  coef=".7204"/><qTerm  idx="1"  idxOne="4"  idxTwo="8"  coef=".9177"/><qTerm  idx="1"  idxOne="4"  idxTwo="9"  coef=".9087"/><qTerm  idx="1"  idxOne="4"  idxTwo="10"  coef="-.7489"/><qTerm  idx="1"  idxOne="4"  idxTwo="14"  coef="1.6292"/><qTerm  idx="1"  idxOne="4"  idxTwo="15"  coef="-.9745"/><qTerm  idx="1"  idxOne="4"  idxTwo="18"  coef=".1274"/><qTerm  idx="1"  idxOne="5"  idxTwo="7"  coef="-.7397"/><qTerm  idx="1"  idxOne="5"  idxTwo="17"  coef="-1.5344"/><qTerm  idx="1"  idxOne="6"  idxTwo="6"  coef=".7055"/><qTerm  idx="1"  idxOne="6"  idxTwo="13"  coef="1.1618"/><qTerm  idx="1"  idxOne="6"  idxTwo="14"  coef="-1.367"/><qTerm  idx="1"  idxOne="6"  idxTwo="19"  coef="1.8372"/><qTerm  idx="1"  idxOne="7"  idxTwo="14"  coef=".4882"/><qTerm  idx="1"  idxOne="7"  idxTwo="16"  coef=".4986"/><qTerm  idx="1"  idxOne="7"  idxTwo="18"  coef=".9937"/><qTerm  idx="1"  idxOne="8"  idxTwo="9"  coef="1.7104"/><qTerm  idx="1"  idxOne="8"  idxTwo="12"  coef="-1.6589"/><qTerm  idx="1"  idxOne="8"  idxTwo="13"  coef="1.1234"/><qTerm  idx="1"  idxOne="8"  idxTwo="15"  coef="-1.0402"/><qTerm  idx="1"  idxOne="9"  idxTwo="15"  coef="1.458"/><qTerm  idx="1"  idxOne="10"  idxTwo="15"  coef="-2.86e-2"/><qTerm  idx="1"  idxOne="10"  idxTwo="16"  coef="1.9522"/><qTerm  idx="1"  idxOne="11"  idxTwo="13"  coef="-1.0689"/><qTerm  idx="1"  idxOne="11"  idxTwo="15"  coef="1.5417"/><qTerm  idx="1"  idxOne="11"  idxTwo="16"  coef=".2378"/><qTerm  idx="1"  idxOne="11"  idxTwo="17"  coef="-1.8456"/><qTerm  idx="1"  idxOne="12"  idxTwo="13"  coef="-1.658"/><qTerm  idx="1"  idxOne="12"  idxTwo="14"  coef=".8962"/><qTerm  idx="1"  idxOne="13"  idxTwo="17"  coef="-.4439"/><qTerm  idx="1"  idxOne="13"  idxTwo="19"  coef="-1.2811"/><qTerm  idx="1"  idxOne="14"  idxTwo="14"  coef="-.2185"/><qTerm  idx="1"  idxOne="14"  idxTwo="15"  coef="-.3386"/><qTerm  idx="1"  idxOne="14"  idxTwo="16"  coef="-.6359"/><qTerm  idx="1"  idxOne="14"  idxTwo="17"  coef="-.7681"/><qTerm  idx="1"  idxOne="15"  idxTwo="19"  coef="-3.55e-2"/><qTerm  idx="1"  idxOne="16"  idxTwo="16"  coef="-.3728"/><qTerm  idx="1"  idxOne="16"  idxTwo="18"  coef="-.2363"/><qTerm  idx="1"  idxOne="17"  idxTwo="18"  coef="-.8408"/><qTerm  idx="1"  idxOne="19"  idxTwo="19"  coef="1.8811"/><qTerm  idx="2"  idxOne="0"  idxTwo="1"  coef="-8.59e-2"/><qTerm  idx="2"  idxOne="0"  idxTwo="9"  coef="-.6436"/><qTerm  idx="2"  idxOne="0"  idxTwo="16"  coef=".6287"/><qTerm  idx="2"  idxOne="1"  idxTwo="2"  coef=".6069"/><qTerm  idx="2"  idxOne="1"  idxTwo="3"  coef=".4746"/><qTerm  idx="2"  idxOne="1"  idxTwo="11"  coef=".777"/><qTerm  idx="2"  idxOne="1"  idxTwo="14"  coef=".8266"/><qTerm  idx="2"  idxOne="1"  idxTwo="17"  coef=".2288"/><qTerm  idx="2"  idxOne="2"  idxTwo="4"  coef="-1.9306"/><qTerm  idx="2"  idxOne="2"  idxTwo="5"  coef="1.6939"/><qTerm  idx="2"  idxOne="2"  idxTwo="7"  coef="-1.0294"/><qTerm  idx="2"  idxOne="2"  idxTwo="10"  coef="1.9747"/><qTerm  idx="2"  idxOne="2"  idxTwo="12"  coef="-1.445"/><qTerm  idx="2"  idxOne="2"  idxTwo="13"  coef="-.1552"/><qTerm  idx="2"  idxOne="3"  idxTwo="3"  coef="-.4753"/><qTerm  idx="2"  idxOne="3"  idxTwo="5"  coef="1.2309"/><qTerm  idx="2"  idxOne="3"  idxTwo="14"  coef="3.97e-2"/><qTerm  idx="2"  idxOne="3"  idxTwo="19"  coef="-1.9527"/><qTerm  idx="2"  idxOne="4"  idxTwo="14"  coef=".5574"/><qTerm  idx="2"  idxOne="4"  idxTwo="15"  coef="-1.7424"/><qTerm  idx="2"  idxOne="4"  idxTwo="16"  coef="-1.6474"/><qTerm  idx="2"  idxOne="5"  idxTwo="6"  coef="1.3817"/><qTerm  idx="2"  idxOne="5"  idxTwo="7"  coef=".8926"/><qTerm  idx="2"  idxOne="5"  idxTwo="8"  coef=".82"/><qTerm  idx="2"  idxOne="5"  idxTwo="14"  coef="1.4272"/><qTerm  idx="2"  idxOne="5"  idxTwo="16"  coef=".4992"/><qTerm  idx="2"  idxOne="5"  idxTwo="17"  coef="1.3194"/><qTerm  idx="2"  idxOne="5"  idxTwo="18"  coef="-.3335"/><qTerm  idx="2"  idxOne="5"  idxTwo="19"  coef="1.9137"/><qTerm  idx="2"  idxOne="6"  idxTwo="6"  coef="1.3148"/><qTerm  idx="2"  idxOne="6"  idxTwo="9"  coef=".9445"/><qTerm  idx="2"  idxOne="6"  idxTwo="19"  coef=".455"/><qTerm  idx="2"  idxOne="7"  idxTwo="8"  coef="-.1562"/><qTerm  idx="2"  idxOne="7"  idxTwo="12"  coef=".1295"/><qTerm  idx="2"  idxOne="7"  idxTwo="13"  coef="-1.1985"/><qTerm  idx="2"  idxOne="7"  idxTwo="14"  coef="1.2874"/><qTerm  idx="2"  idxOne="8"  idxTwo="12"  coef="1.3009"/><qTerm  idx="2"  idxOne="8"  idxTwo="19"  coef="1.0801"/><qTerm  idx="2"  idxOne="9"  idxTwo="10"  coef=".147"/><qTerm  idx="2"  idxOne="9"  idxTwo="13"  coef="-.9814"/><qTerm  idx="2"  idxOne="9"  idxTwo="18"  coef="1.9221"/><qTerm  idx="2"  idxOne="9"  idxTwo="19"  coef="-.3003"/><qTerm  idx="2"  idxOne="10"  idxTwo="12"  coef="-1.2497"/><qTerm  idx="2"  idxOne="10"  idxTwo="13"  coef="1.3023"/><qTerm  idx="2"  idxOne="12"  idxTwo="15"  coef="-1.0213"/><qTerm  idx="2"  idxOne="13"  idxTwo="17"  coef="-1.9427"/><qTerm  idx="2"  idxOne="14"  idxTwo="14"  coef="-1.1855"/><qTerm  idx="2"  idxOne="14"  idxTwo="15"  coef=".2409"/><qTerm  idx="2"  idxOne="14"  idxTwo="17"  coef=".856"/><qTerm  idx="2"  idxOne="15"  idxTwo="15"  coef="-1.3619"/><qTerm  idx="2"  idxOne="15"  idxTwo="17"  coef="1.6608"/><qTerm  idx="2"  idxOne="15"  idxTwo="19"  coef="-.6083"/><qTerm  idx="3"  idxOne="0"  idxTwo="6"  coef="1.894"/><qTerm  idx="3"  idxOne="0"  idxTwo="9"  coef="-1.0094"/><qTerm  idx="3"  idxOne="0"  idxTwo="12"  coef="-.2223"/><qTerm  idx="3"  idxOne="0"  idxTwo="16"  coef="-1.1005"/><qTerm  idx="3"  idxOne="1"  idxTwo="9"  coef=".7866"/><qTerm  idx="3"  idxOne="1"  idxTwo="11"  coef="-.2435"/><qTerm  idx="3"  idxOne="1"  idxTwo="17"  coef="-.6227"/><qTerm  idx="3"  idxOne="2"  idxTwo="4"  coef="-.5351"/><qTerm  idx="3"  idxOne="2"  idxTwo="8"  coef="-1.4488"/><qTerm  idx="3"  idxOne="2"  idxTwo="11"  coef=".1968"/><qTerm  idx="3"  idxOne="2"  idxTwo="12"  coef="-.6627"/><qTerm  idx="3"  idxOne="2"  idxTwo="14"  coef=".1659"/><qTerm  idx="3"  idxOne="2"  idxTwo="16"  coef="1.9599"/><qTerm  idx="3"  idxOne="2"  idxTwo="17"  coef="1.1009"/><qTerm  idx="3"  idxOne="2"  idxTwo="18"  coef="-.6578"/><qTerm  idx="3"  idxOne="2"  idxTwo="19"  coef="-1.3956"/><qTerm  idx="3"  idxOne="3"  idxTwo="3"  coef="1.24"/><qTerm  idx="3"  idxOne="3"  idxTwo="4"  coef="-.2933"/><qTerm  idx="3"  idxOne="3"  idxTwo="13"  coef="1.9082"/><qTerm  idx="3"  idxOne="3"  idxTwo="14"  coef="1.172"/><qTerm  idx="3"  idxOne="3"  idxTwo="19"  coef="1.727"/><qTerm  idx="3"  idxOne="4"  idxTwo="4"  coef="-1.7517"/><qTerm  idx="3"  idxOne="4"  idxTwo="6"  coef="1.3723"/><qTerm  idx="3"  idxOne="4"  idxTwo="8"  coef="1.3204"/><qTerm  idx="3"  idxOne="4"  idxTwo="10"  coef="-1.4502"/><qTerm  idx="3"  idxOne="4"  idxTwo="17"  coef="-1.1138"/><qTerm  idx="3"  idxOne="4"  idxTwo="18"  coef=".6959"/><qTerm  idx="3"  idxOne="5"  idxTwo="8"  coef="1.8264"/><qTerm  idx="3"  idxOne="5"  idxTwo="9"  coef="-1.0457"/><qTerm  idx="3"  idxOne="5"  idxTwo="17"  coef=".7079"/><qTerm  idx="3"  idxOne="5"  idxTwo="18"  coef="-.5358"/><qTerm  idx="3"  idxOne="6"  idxTwo="16"  coef="-1.9877"/><qTerm  idx="3"  idxOne="7"  idxTwo="10"  coef="-1.9945"/><qTerm  idx="3"  idxOne="8"  idxTwo="12"  coef="-1.805"/><qTerm  idx="3"  idxOne="8"  idxTwo="13"  coef=".3789"/><qTerm  idx="3"  idxOne="8"  idxTwo="16"  coef=".9914"/><qTerm  idx="3"  idxOne="8"  idxTwo="18"  coef="-1.3346"/><qTerm  idx="3"  idxOne="9"  idxTwo="13"  coef="1.3358"/><qTerm  idx="3"  idxOne="9"  idxTwo="14"  coef=".538"/><qTerm  idx="3"  idxOne="9"  idxTwo="18"  coef="1.8422"/><qTerm  idx="3"  idxOne="10"  idxTwo="12"  coef=".7765"/><qTerm  idx="3"  idxOne="10"  idxTwo="13"  coef="-1.2622"/><qTerm  idx="3"  idxOne="10"  idxTwo="14"  coef="1.6113"/><qTerm  idx="3"  idxOne="11"  idxTwo="18"  coef="-.8559"/><qTerm  idx="3"  idxOne="12"  idxTwo="14"  coef=".6595"/><qTerm  idx="3"  idxOne="12"  idxTwo="15"  coef="1.5161"/><qTerm  idx="3"  idxOne="12"  idxTwo="18"  coef=".4398"/><qTerm  idx="3"  idxOne="13"  idxTwo="13"  coef="1.7565"/><qTerm  idx="3"  idxOne="13"  idxTwo="19"  coef="1.3107"/><qTerm  idx="3"  idxOne="14"  idxTwo="16"  coef="1.1073"/><qTerm  idx="3"  idxOne="14"  idxTwo="17"  coef=".7851"/><qTerm  idx="3"  idxOne="17"  idxTwo="19"  coef="-1.0249"/></quadraticCoefficients></instanceData></osil>
